language ESSENCE' 1.0

letting pos_FunctionND be
        [[1, 3; int(1..2)], [4, 7; int(1..2)], [8, 12; int(1..2)], [11, 16; int(1..2)], [9, 15; int(1..2)],
         [6, 13; int(1..2)], [2, 10; int(1..2)], [5, 14; int(1..2)];
             int(1..8)]
$ Visualisation for pos_FunctionND
$  1  3
$  4  7
$  8 12
$ 11 16
$  9 15
$  6 13
$  2 10
$  5 14

